10,1,12,1,13,2,12,2,6,3,3,2,9,4,11,3,12,3,2,5,15,2,7,4,14,5,5,5;14,1,14,2,5,2,6,2,10,2,4,2,2,3,3,3,7,3,13,4,11,5,12,4,6,4,9,5,12,5,15,5;6,1,3,1,13,1,14,4,1,2,9,3,5,3,11,2,10,3,13,3,10,4,4,5,15,3,10,5,7,5;1,1,9,1,9,2,8,2,4,1,15,1,7,2,4,3,2,4,11,4,1,5,8,4,13,5,8,5;5,1,8,1,14,3,11,1,2,1,2,2,7,1,8,3,1,3,1,4,4,4,5,4,3,4,3,5,15,4,6,5;
